\ Model MPC
\ LP format - for model browsing. Use MPS format to capture full model detail.
Minimize
 [ 2.17014e-06 y[0,0] ^2 + 2.82449e-07 y[0,1] ^2 + 1.82326e-07 y[0,2] ^2
   + 1.54707e-06 y[0,3] ^2 + 2.17014e-06 y[1,0] ^2 + 2.82449e-07 y[1,1] ^2
   + 1.82326e-07 y[1,2] ^2 + 1.54707e-06 y[1,3] ^2 + 2.17014e-06 y[2,0] ^2
   + 2.82449e-07 y[2,1] ^2 + 1.82326e-07 y[2,2] ^2 + 1.54707e-06 y[2,3] ^2
   + 2.17014e-06 y[3,0] ^2 + 2.82449e-07 y[3,1] ^2 + 1.82326e-07 y[3,2] ^2
   + 1.54707e-06 y[3,3] ^2 + 2.17014e-06 y[4,0] ^2 + 2.82449e-07 y[4,1] ^2
   + 1.82326e-07 y[4,2] ^2 + 1.54707e-06 y[4,3] ^2 + 2.17014e-06 y[5,0] ^2
   + 2.82449e-07 y[5,1] ^2 + 1.82326e-07 y[5,2] ^2 + 1.54707e-06 y[5,3] ^2
   + 0.1 z[0,0] ^2 + 0.2 z[0,1] ^2 + 0.5 z[0,2] ^2 + 0.5 z[0,3] ^2
   + 0.1 z[1,0] ^2 + 0.2 z[1,1] ^2 + 0.5 z[1,2] ^2 + 0.5 z[1,3] ^2
   + 0.1 z[2,0] ^2 + 0.2 z[2,1] ^2 + 0.5 z[2,2] ^2 + 0.5 z[2,3] ^2
   + 0.1 z[3,0] ^2 + 0.2 z[3,1] ^2 + 0.5 z[3,2] ^2 + 0.5 z[3,3] ^2
   + 0.1 z[4,0] ^2 + 0.2 z[4,1] ^2 + 0.5 z[4,2] ^2 + 0.5 z[4,3] ^2 ] / 2 
Subject To
 R0: x[0,0] = 10
 R1: x[0,1] = 43
 R2: x[0,2] = 25
 R3: x[0,3] = 27
 R4: u[0,0] - u[0,1] = 0
 R5: u[0,3] - u_41 - u_43 = 0
 R6: u[0,2] + u_41 - u_43 = -3
 R7: - u[0,0] - u[0,2] + C - u_41 = 9
 R8: - x[0,0] + y[0,0] = 0
 R9: - x[0,1] + y[0,1] = 0
 R10: - x[0,2] + y[0,2] = 0
 R11: - x[0,3] + y[0,3] = 0
 R12: z[0,0] = 0
 R13: z[0,1] = 0
 R14: z[0,2] = 0
 R15: z[0,3] = 0
 R16: u[1,0] - u[1,1] = 0
 R17: u[1,3] - u_41 - u_43 = 0
 R18: u[1,2] + u_41 - u_43 = -3
 R19: - u[1,0] - u[1,2] + C - u_41 = 9
 R20: - x[1,0] + y[1,0] = 0
 R21: - x[1,1] + y[1,1] = 0
 R22: - x[1,2] + y[1,2] = 0
 R23: - x[1,3] + y[1,3] = 0
 R24: u[0,0] - u[1,0] + z[1,0] = 0
 R25: u[0,1] - u[1,1] + z[1,1] = 0
 R26: u[0,2] - u[1,2] + z[1,2] = 0
 R27: u[0,3] - u[1,3] + z[1,3] = 0
 R28: u[2,0] - u[2,1] = 0
 R29: u[2,3] - u_41 - u_43 = 0
 R30: u[2,2] + u_41 - u_43 = -3
 R31: - u[2,0] - u[2,2] + C - u_41 = 9
 R32: - x[2,0] + y[2,0] = 0
 R33: - x[2,1] + y[2,1] = 0
 R34: - x[2,2] + y[2,2] = 0
 R35: - x[2,3] + y[2,3] = 0
 R36: u[0,0] - u[2,0] + z[2,0] = 0
 R37: u[0,1] - u[2,1] + z[2,1] = 0
 R38: u[0,2] - u[2,2] + z[2,2] = 0
 R39: u[0,3] - u[2,3] + z[2,3] = 0
 R40: u[3,0] - u[3,1] = 0
 R41: u[3,3] - u_41 - u_43 = 0
 R42: u[3,2] + u_41 - u_43 = -3
 R43: - u[3,0] - u[3,2] + C - u_41 = 9
 R44: - x[3,0] + y[3,0] = 0
 R45: - x[3,1] + y[3,1] = 0
 R46: - x[3,2] + y[3,2] = 0
 R47: - x[3,3] + y[3,3] = 0
 R48: u[0,0] - u[3,0] + z[3,0] = 0
 R49: u[0,1] - u[3,1] + z[3,1] = 0
 R50: u[0,2] - u[3,2] + z[3,2] = 0
 R51: u[0,3] - u[3,3] + z[3,3] = 0
 R52: u[4,0] - u[4,1] = 0
 R53: u[4,3] - u_41 - u_43 = 0
 R54: u[4,2] + u_41 - u_43 = -3
 R55: - u[4,0] - u[4,2] + C - u_41 = 9
 R56: - x[4,0] + y[4,0] = 0
 R57: - x[4,1] + y[4,1] = 0
 R58: - x[4,2] + y[4,2] = 0
 R59: - x[4,3] + y[4,3] = 0
 R60: u[0,0] - u[4,0] + z[4,0] = 0
 R61: u[0,1] - u[4,1] + z[4,1] = 0
 R62: u[0,2] - u[4,2] + z[4,2] = 0
 R63: u[0,3] - u[4,3] + z[4,3] = 0
 R64: - x[5,0] + y[5,0] = 0
 R65: - x[5,1] + y[5,1] = 0
 R66: - x[5,2] + y[5,2] = 0
 R67: - x[5,3] + y[5,3] = 0
 qc0: - x[0,0] + x[1,0] + [ 83.33333333333334 u[0,0] * C_dummy ] = 0
 qc1: - x[0,1] + x[1,1] + [ 83.33333333333334 u[0,1] * C_dummy ] = 1
 qc2: - x[0,2] + x[1,2] + [ 83.33333333333334 u[0,2] * C_dummy ] = 0
 qc3: - x[0,3] + x[1,3] + [ 83.33333333333334 u[0,3] * C_dummy ] = 0
 qc4: - x[1,0] + x[2,0] + [ 83.33333333333334 u[1,0] * C_dummy ] = 0
 qc5: - x[1,1] + x[2,1] + [ 83.33333333333334 u[1,1] * C_dummy ] = 0
 qc6: - x[1,2] + x[2,2] + [ 83.33333333333334 u[1,2] * C_dummy ] = 0
 qc7: - x[1,3] + x[2,3] + [ 83.33333333333334 u[1,3] * C_dummy ] = 0
 qc8: - x[2,0] + x[3,0] + [ 83.33333333333334 u[2,0] * C_dummy ] = 0
 qc9: - x[2,1] + x[3,1] + [ 83.33333333333334 u[2,1] * C_dummy ] = 0
 qc10: - x[2,2] + x[3,2] + [ 83.33333333333334 u[2,2] * C_dummy ] = 0
 qc11: - x[2,3] + x[3,3] + [ 83.33333333333334 u[2,3] * C_dummy ] = 0
 qc12: - x[3,0] + x[4,0] + [ 83.33333333333334 u[3,0] * C_dummy ] = 0
 qc13: - x[3,1] + x[4,1] + [ 83.33333333333334 u[3,1] * C_dummy ] = 0
 qc14: - x[3,2] + x[4,2] + [ 83.33333333333334 u[3,2] * C_dummy ] = 0
 qc15: - x[3,3] + x[4,3] + [ 83.33333333333334 u[3,3] * C_dummy ] = 0
 qc16: - x[4,0] + x[5,0] + [ 83.33333333333334 u[4,0] * C_dummy ] = 0
 qc17: - x[4,1] + x[5,1] + [ 83.33333333333334 u[4,1] * C_dummy ] = 0
 qc18: - x[4,2] + x[5,2] + [ 83.33333333333334 u[4,2] * C_dummy ] = 0
 qc19: - x[4,3] + x[5,3] + [ 83.33333333333334 u[4,3] * C_dummy ] = 0
Bounds
 u[0,0] >= 15
 u[0,1] >= 15
 u[0,2] >= 15
 u[0,3] >= 15
 u[1,0] >= 15
 u[1,1] >= 15
 u[1,2] >= 15
 u[1,3] >= 15
 u[2,0] >= 15
 u[2,1] >= 15
 u[2,2] >= 15
 u[2,3] >= 15
 u[3,0] >= 15
 u[3,1] >= 15
 u[3,2] >= 15
 u[3,3] >= 15
 u[4,0] >= 15
 u[4,1] >= 15
 u[4,2] >= 15
 u[4,3] >= 15
 50 <= C <= 100
 u_41 >= 5
 u_43 >= 5
 y[0,0] free
 y[0,1] free
 y[0,2] free
 y[0,3] free
 y[1,0] free
 y[1,1] free
 y[1,2] free
 y[1,3] free
 y[2,0] free
 y[2,1] free
 y[2,2] free
 y[2,3] free
 y[3,0] free
 y[3,1] free
 y[3,2] free
 y[3,3] free
 y[4,0] free
 y[4,1] free
 y[4,2] free
 y[4,3] free
 y[5,0] free
 y[5,1] free
 y[5,2] free
 y[5,3] free
 z[0,0] free
 z[0,1] free
 z[0,2] free
 z[0,3] free
 z[1,0] free
 z[1,1] free
 z[1,2] free
 z[1,3] free
 z[2,0] free
 z[2,1] free
 z[2,2] free
 z[2,3] free
 z[3,0] free
 z[3,1] free
 z[3,2] free
 z[3,3] free
 z[4,0] free
 z[4,1] free
 z[4,2] free
 z[4,3] free
Generals
 x[0,0] x[0,1] x[0,2] x[0,3] x[1,0] x[1,1] x[1,2] x[1,3] x[2,0] x[2,1]
 x[2,2] x[2,3] x[3,0] x[3,1] x[3,2] x[3,3] x[4,0] x[4,1] x[4,2] x[4,3]
 x[5,0] x[5,1] x[5,2] x[5,3] u[0,0] u[0,1] u[0,2] u[0,3] u[1,0] u[1,1]
 u[1,2] u[1,3] u[2,0] u[2,1] u[2,2] u[2,3] u[3,0] u[3,1] u[3,2] u[3,3]
 u[4,0] u[4,1] u[4,2] u[4,3] C u_41 u_43
End
